Traveling Salesman Problem/TSP_generados/Aleatorio1621103469_15.tsp
NAME: Aleatorio1621103469_15.tsp
COMMENT: Randomly generated scenario
TYPE: TSP
DIMENSION: 15
EDGE_WEIGHT_TYPE: ATT
NODE_COORD_SECTION
1 12.11 30.93
2 35.84 7.5
3 4.97 21.4
4 46.09 40.33
5 47.21 38.54
6 4.26 31.99
7 17.51 35.15
8 40.85 13.74
9 22.92 29.07
10 27.63 49.18
11 31.55 45.26
12 48.04 47.52
13 29.6 44.47
14 31.91 34.45
15 33.42 47.87
