Traveling Salesman Problem/TSP_generados/Aleatorio1621103469_15.opt.tour
NAME: Aleatorio1621103469_15.opt.tour
COMMENT: Optimal solution for Aleatorio1621103469_15 (159.51593468638347)
TYPE: TOUR
DIMENSION: 15
TOUR_SECTION
1 7 9 14 13 11 10 15 12 4 5 8 2 3 6
-1
EOF
